proyfinal/src/viki/013/andrea/andrea-localstore/experimentInOfficeAgust.take6/worker_10/58612681-a251-4f83-9a09-af731cf3454d.als.cnf.out
Reading from standard input... Use '--help' for help.
============================[ Problem Statistics ]=============================
|                                                                             |
|  Number of variables:         87638                                         |
|  Number of clauses:          161767                                         |
|  Parse time:                   0.03 s                                       |
|                                                                             |
============================[ Search Statistics ]==============================
| Conflicts |          ORIGINAL         |          LEARNT          | Progress |
|           |    Vars  Clauses Literals |    Limit  Clauses Lit/Cl |          |
===============================================================================
|       100 |   65222   115518   288071 |    42356      100     76 | 25.578 % |
|       250 |   65222   115518   288071 |    46592      250     59 | 25.578 % |
|       475 |   65222   115518   288071 |    51251      475     76 | 25.578 % |
|       812 |   65222   115518   288071 |    56376      812     62 | 25.578 % |
|      1318 |   65222   115518   288071 |    62014     1318     62 | 25.578 % |
|      2077 |   65222   115518   288071 |    68215     2077     56 | 25.578 % |
|      3216 |   58632   115469   287969 |    75037     3207     62 | 33.098 % |
|      4924 |   56240    93934   234877 |    82541     4581     74 | 35.827 % |
|      7486 |   56056    85887   214675 |    90795     6275     79 | 36.037 % |
|     11330 |   55877    85207   213026 |    99874    10042     68 | 36.241 % |
|     17096 |   55491    83513   209066 |   109862    13448     69 | 36.682 % |
===============================================================================
restarts              : 81
conflicts             : 22771          (8478 /sec)
decisions             : 79784          (0.00 % random) (29705 /sec)
propagations          : 27089330       (10085812 /sec)
conflict literals     : 1541089        (45.02 % deleted)
Memory used           : 40.86 MB
CPU time              : 2.68588 s

UNSATISFIABLE
